results_rootrelaxation/bin012_090_034.srr.sol
solution status: optimal solution found
objective value:                                 30.5
_var676_                            0.499999999999999 	(obj:2)
_var677_                                          0.5 	(obj:1)
_var683_                            0.500000000000002 	(obj:2)
_var714_                                          0.5 	(obj:2)
_var754_                            0.500000000000002 	(obj:1)
_var768_                                          0.5 	(obj:4)
_var781_                            0.499999999999999 	(obj:1)
_var805_                            0.500000000000001 	(obj:5)
_var819_                                          0.5 	(obj:3)
_var821_                            0.499999999999999 	(obj:2)
_var826_                                          0.5 	(obj:2)
_var829_                            0.500000000000001 	(obj:3)
_var833_                            0.499999999999999 	(obj:2)
_var835_                                          0.5 	(obj:1)
_var847_                                          0.5 	(obj:2)
_var850_                                          0.5 	(obj:5)
_var854_                            0.499999999999999 	(obj:3)
_var865_                                          0.5 	(obj:3)
_var879_                            0.500000000000001 	(obj:5)
_var902_                                          0.5 	(obj:4)
_var905_                            0.500000000000001 	(obj:3)
_var916_                            0.499999999999999 	(obj:5)
